cvc5/13471.corecstrs.readable_medium.smt2
(set-info :smt-lib-version 2.6)
(set-logic QF_SLIA)
(set-info :source |
Generated by: Andrew Reynolds
Generated on: 2018-04-25
Generator: Kudzu, converted to v2.6 by CVC4
Application: Symbolic Execution of Javascript
Target solver: Kaluza
Publications: "A symbolic execution framework for JavaScript" by P. Saxena, D. Akhawe, S. Hanna, F. Mao, S. McCamant, and D. Song, 2010.
|)
(set-info :license "https://creativecommons.org/licenses/by/4.0/")
(set-info :category "industrial")
(set-info :status unknown)



(declare-fun T_1 () Bool)
(declare-fun var_0xINPUT_125573 () String)
(declare-const part_1_2957 String)
(assert (= T_1 (= "aqdYVEFBFA" var_0xINPUT_125573)))
(assert T_1)
(assert (= (str.split_at var_0xINPUT_125573 ":" 1) var_0xINPUT_125573))
(assert (= (str.split_at var_0xINPUT_125573 ":" 2) part_1_2957))
(assert (str.suffixof "z" part_1_2957))
(assert (= (str.split_rest var_0xINPUT_125573 ":" 1) "uo2dn3"))
(assert (= (str.split_rest var_0xINPUT_125573 ":" 3) "yxn8txz"))
(assert (= (str.split_rest var_0xINPUT_125573 ":" 2) "6x2ibbtpr0lvh"))
(assert (= (str.split_rest var_0xINPUT_125573 ":" 0) "l66jz9m3"))
(check-sat)

(exit)
(get-model)
