cvc5/13471.corecstrs.readable_medium.txt
(define-fun T_1 () Bool true)
(define-fun var_0xINPUT_125573 () String "aqdYVEFBFA")
(define-fun part_1_2957 () String "z")